100
32
17
19
4
23
10
13
25
11
1
25
11
1
29
1
24
1
12
28
10
14
10
1
3
16
12
2
1
2
21
1
10
14
5
6
15
2
2
10
17
17
1
11
14
1
11
3
5
1
1
1
12
16
2
1
24
27
12
2
1
3
1
10
1
6
1
1
2
1
1
2
2
1
1
12
13
1
11
12
1
15
1
19
2
23
2
18
2
17
2
3
3
3
2
3
3
3
21
6
3
19